problem_generation/data/GISP/train/er_n=61_m=1112_p=0.60_SET2_setparam=100.00_alpha=0.50_488.lp
maximize
OBJ:100x0 + 100x1 + 100x2 + 100x3 + 100x4 + 100x5 + 100x6 + 100x7 + 100x8 + 100x9 + 100x10 + 100x11 + 100x12 + 100x13 + 100x14 + 100x15 + 100x16 + 100x17 + 100x18 + 100x19 + 100x20 + 100x21 + 100x22 + 100x23 + 100x24 + 100x25 + 100x26 + 100x27 + 100x28 + 100x29 + 100x30 + 100x31 + 100x32 + 100x33 + 100x34 + 100x35 + 100x36 + 100x37 + 100x38 + 100x39 + 100x40 + 100x41 + 100x42 + 100x43 + 100x44 + 100x45 + 100x46 + 100x47 + 100x48 + 100x49 + 100x50 + 100x51 + 100x52 + 100x53 + 100x54 + 100x55 + 100x56 + 100x57 + 100x58 + 100x59 + 100x60 - y15_21 - y55_57 - y15_39 - y17_58 - y26_39 - y18_35 - y28_58 - y18_44 - y0_5 - y48_54 - y21_37 - y29_59 - y21_55 - y2_32 - y10_45 - y33_47 - y44_47 - y25_52 - y22_37 - y14_42 - y36_48 - y18_21 - y47_57 - y28_53 - y18_30 - y9_49 - y5_60 - y6_34 - y29_36 - y48_49 - y21_32 - y40_45 - y21_50 - y33_42 - y10_49 - y2_45 - y25_47 - y22_23 - y51_59 - y32_55 - y3_28 - y3_37 - y55_56 - y28_39 - y36_52 - y9_44 - y29_31 - y21_27 - y21_36 - y40_49 - y10_35 - y10_44 - y3_5 - y32_41 - y3_14 - y43_50 - y24_46 - y3_23 - y43_59 - y1_53 - y24_55 - y14_32 - y16_51 - y36_38 - y17_34 - y5_50 - y17_52 - y28_52 - y9_48 - y6_24 - y21_22 - y6_51 - y10_12 - y39_57 - y31_53 - y2_35 - y32_36 - y43_45 - y24_41 - y16_37 - y13_50 - y24_50 - y13_59 - y17_38 - y21_35 - y39_43 - y20_39 - y2_21 - y20_57 - y31_57 - y23_53 - y4_58 - y32_40 - y13_36 - y24_36 - y16_32 - y13_45 - y32_58 - y16_41 - y1_52 - y9_11 - y9_29 - y17_42 - y28_42 - y9_38 - y5_58 - y50_57 - y8_51 - y10_11 - y2_7 - y20_43 - y23_57 - y13_22 - y24_31 - y1_38 - y13_40 - y24_40 - y16_36 - y1_56 - y16_54 - y5_17 - y17_19 - y5_26 - y17_28 - y38_60 - y5_35 - y17_37 - y27_50 - y19_46 - y42_48 - y42_57 - y11_60 - y12_25 - y23_25 - y20_38 - y31_38 - y39_42 - y23_34 - y20_47 - y4_30 - y39_60 - y23_52 - y1_15 - y24_26 - y1_33 - y24_35 - y16_31 - y13_44 - y35_44 - y5_21 - y9_19 - y5_39 - y8_32 - y30_41 - y42_43 - y27_54 - y8_50 - y42_52 - y11_46 - y30_59 - y0_55 - y31_33 - y20_42 - y12_38 - y31_51 - y4_34 - y4_43 - y1_19 - y53_57 - y34_53 - y1_28 - y13_30 - y22_60 - y16_35 - y1_46 - y5_16 - y15_48 - y26_48 - y38_50 - y7_44 - y38_59 - y49_59 - y7_53 - y18_53 - y27_31 - y19_27 - y8_36 - y19_36 - y50_51 - y42_56 - y12_15 - y0_59 - y41_60 - y20_37 - y4_20 - y23_33 - y12_42 - y34_39 - y1_14 - y34_48 - y45_48 - y24_25 - y16_21 - y1_32 - y26_34 - y5_11 - y46_49 - y18_39 - y26_52 - y7_57 - y18_57 - y30_31 - y11_27 - y30_49 - y0_54 - y12_19 - y44_60 - y25_56 - y1_9 - y1_18 - y22_50 - y37_48 - y22_59 - y15_20 - y26_29 - y5_6 - y15_47 - y7_43 - y18_43 - y15_56 - y27_30 - y0_13 - y11_13 - y0_22 - y19_35 - y11_31 - y19_44 - y30_44 - y4_10 - y44_46 - y52_59 - y33_55 - y1_4 - y2_58 - y25_60 - y34_47 - y45_56 - y3_59 - y14_59 - y26_42 - y7_38 - y7_47 - y7_56 - y0_26 - y11_26 - y0_35 - y25_37 - y10_48 - y44_59 - y34_42 - y22_49 - y3_54 - y14_54 - y15_19 - y7_15 - y47_60 - y26_37 - y0_12 - y29_48 - y0_21 - y6_55 - y33_36 - y41_58 - y25_41 - y52_58 - y10_52 - y22_26 - y2_57 - y34_37 - y14_40 - y22_53 - y3_49 - y7_10 - y47_55 - y18_28 - y0_7 - y29_43 - y48_56 - y10_29 - y41_44 - y25_45 - y25_54 - y14_17 - y32_53 - y22_30 - y3_26 - y3_35 - y36_41 - y7_14 - y17_46 - y28_46 - y18_23 - y9_42 - y17_55 - y21_25 - y21_43 - y40_56 - y10_15 - y10_24 - y54_58 - y33_35 - y2_29 - y10_42 - y2_47 - y22_25 - y2_56 - y3_21 - y13_53 - y35_53 - y17_32 - y28_32 - y36_54 - y9_37 - y47_54 - y17_50 - y5_57 - y6_22 - y6_49 - y6_58 - y2_6 - y39_55 - y32_34 - y32_43 - y51_56 - y24_39 - y24_48 - y35_48 - y13_57 - y24_57 - y35_57 - y17_18 - y28_36 - y47_49 - y9_32 - y17_45 - y47_58 - y17_54 - y6_17 - y9_59 - y21_24 - y6_35 - y29_37 - y21_33 - y39_50 - y2_10 - y20_46 - y39_59 - y20_55 - y31_55 - y23_51 - y12_60 - y2_37 - y4_56 - y24_34 - y32_47 - y51_60 - y1_41 - y1_50 - y35_52 - y16_48 - y1_59 - y17_31 - y28_31 - y5_38 - y9_36 - y5_47 - y9_45 - y58_59 - y42_51 - y21_28 - y8_58 - y31_41 - y10_18 - y39_54 - y20_50 - y2_23 - y12_55 - y13_20 - y23_55 - y32_33 - y16_25 - y51_55 - y35_38 - y35_47 - y1_54 - y13_56 - y5_15 - y46_53 - y5_24 - y38_58 - y5_33 - y17_35 - y5_42 - y6_7 - y9_40 - y42_55 - y20_27 - y0_58 - y31_36 - y10_13 - y20_45 - y12_41 - y23_41 - y2_18 - y20_54 - y23_50 - y12_59 - y1_22 - y43_46 - y1_40 - y24_42 - y24_51 - y5_10 - y1_58 - y17_21 - y46_57 - y15_60 - y19_39 - y0_44 - y8_57 - y0_53 - y39_44 - y12_27 - y20_40 - y12_36 - y31_49 - y12_45 - y23_45 - y4_41 - y13_19 - y4_50 - y1_26 - y24_28 - y4_59 - y35_37 - y46_52 - y38_48 - y26_55 - y49_57 - y7_51 - y27_38 - y8_34 - y0_30 - y19_43 - y27_56 - y8_52 - y19_52 - y42_54 - y20_26 - y20_35 - y23_31 - y20_44 - y23_40 - y1_3 - y23_49 - y1_21 - y13_23 - y34_55 - y16_28 - y14_58 - y37_60 - y46_47 - y26_41 - y15_50 - y26_59 - y7_55 - y18_55 - y0_25 - y8_38 - y19_38 - y11_52 - y20_30 - y33_58 - y23_44 - y34_50 - y22_57 - y56_59 - y46_51 - y27_28 - y7_59 - y30_33 - y11_29 - y19_42 - y30_42 - y0_47 - y11_47 - y41_48 - y44_53 - y25_49 - y34_36 - y1_11 - y37_41 - y22_52 - y34_54 - y14_48 - y37_59 - y15_22 - y7_18 - y18_27 - y26_40 - y7_36 - y18_36 - y18_45 - y7_54 - y8_19 - y18_54 - y27_32 - y8_28 - y0_24 - y11_24 - y0_33 - y33_39 - y12_16 - y33_48 - y10_55 - y33_57 - y2_51 - y1_6 - y2_60 - y22_38 - y34_40 - y34_49 - y3_43 - y37_45 - y56_58 - y3_52 - y15_17 - y37_54 - y7_22 - y59_60 - y26_35 - y26_44 - y7_40 - y7_49 - y29_46 - y48_59 - y6_53 - y11_19 - y25_30 - y52_56 - y10_59 - y25_57 - y3_20 - y3_38 - y37_49 - y7_8
 Subject to
C1: x0+x1 <=1 
C2: x0+x4 <=1 
C3: x0+x5-y0_5 <=1 
C4: x0+x6 <=1 
C5: x0+x7-y0_7 <=1 
C6: x0+x8 <=1 
C7: x0+x9 <=1 
C8: x0+x12-y0_12 <=1 
C9: x0+x13-y0_13 <=1 
C10: x0+x15 <=1 
C11: x0+x17 <=1 
C12: x0+x19 <=1 
C13: x0+x21-y0_21 <=1 
C14: x0+x22-y0_22 <=1 
C15: x0+x24-y0_24 <=1 
C16: x0+x25-y0_25 <=1 
C17: x0+x26-y0_26 <=1 
C18: x0+x30-y0_30 <=1 
C19: x0+x31 <=1 
C20: x0+x33-y0_33 <=1 
C21: x0+x35-y0_35 <=1 
C22: x0+x36 <=1 
C23: x0+x42 <=1 
C24: x0+x43 <=1 
C25: x0+x44-y0_44 <=1 
C26: x0+x46 <=1 
C27: x0+x47-y0_47 <=1 
C28: x0+x48 <=1 
C29: x0+x51 <=1 
C30: x0+x52 <=1 
C31: x0+x53-y0_53 <=1 
C32: x0+x54-y0_54 <=1 
C33: x0+x55-y0_55 <=1 
C34: x0+x57 <=1 
C35: x0+x58-y0_58 <=1 
C36: x0+x59-y0_59 <=1 
C37: x0+x60 <=1 
C38: x1+x3-y1_3 <=1 
C39: x1+x4-y1_4 <=1 
C40: x1+x6-y1_6 <=1 
C41: x1+x7 <=1 
C42: x1+x8 <=1 
C43: x1+x9-y1_9 <=1 
C44: x1+x11-y1_11 <=1 
C45: x1+x12 <=1 
C46: x1+x13 <=1 
C47: x1+x14-y1_14 <=1 
C48: x1+x15-y1_15 <=1 
C49: x1+x18-y1_18 <=1 
C50: x1+x19-y1_19 <=1 
C51: x1+x20 <=1 
C52: x1+x21-y1_21 <=1 
C53: x1+x22-y1_22 <=1 
C54: x1+x26-y1_26 <=1 
C55: x1+x28-y1_28 <=1 
C56: x1+x29 <=1 
C57: x1+x32-y1_32 <=1 
C58: x1+x33-y1_33 <=1 
C59: x1+x35 <=1 
C60: x1+x37 <=1 
C61: x1+x38-y1_38 <=1 
C62: x1+x40-y1_40 <=1 
C63: x1+x41-y1_41 <=1 
C64: x1+x46-y1_46 <=1 
C65: x1+x47 <=1 
C66: x1+x50-y1_50 <=1 
C67: x1+x51 <=1 
C68: x1+x52-y1_52 <=1 
C69: x1+x53-y1_53 <=1 
C70: x1+x54-y1_54 <=1 
C71: x1+x56-y1_56 <=1 
C72: x1+x58-y1_58 <=1 
C73: x1+x59-y1_59 <=1 
C74: x2+x4 <=1 
C75: x2+x5 <=1 
C76: x2+x6-y2_6 <=1 
C77: x2+x7-y2_7 <=1 
C78: x2+x8 <=1 
C79: x2+x10-y2_10 <=1 
C80: x2+x15 <=1 
C81: x2+x16 <=1 
C82: x2+x18-y2_18 <=1 
C83: x2+x19 <=1 
C84: x2+x21-y2_21 <=1 
C85: x2+x22 <=1 
C86: x2+x23-y2_23 <=1 
C87: x2+x29-y2_29 <=1 
C88: x2+x30 <=1 
C89: x2+x32-y2_32 <=1 
C90: x2+x33 <=1 
C91: x2+x35-y2_35 <=1 
C92: x2+x36 <=1 
C93: x2+x37-y2_37 <=1 
C94: x2+x38 <=1 
C95: x2+x42 <=1 
C96: x2+x43 <=1 
C97: x2+x45-y2_45 <=1 
C98: x2+x47-y2_47 <=1 
C99: x2+x50 <=1 
C100: x2+x51-y2_51 <=1 
C101: x2+x54 <=1 
C102: x2+x56-y2_56 <=1 
C103: x2+x57-y2_57 <=1 
C104: x2+x58-y2_58 <=1 
C105: x2+x60-y2_60 <=1 
C106: x3+x5-y3_5 <=1 
C107: x3+x6 <=1 
C108: x3+x8 <=1 
C109: x3+x9 <=1 
C110: x3+x11 <=1 
C111: x3+x12 <=1 
C112: x3+x13 <=1 
C113: x3+x14-y3_14 <=1 
C114: x3+x17 <=1 
C115: x3+x19 <=1 
C116: x3+x20-y3_20 <=1 
C117: x3+x21-y3_21 <=1 
C118: x3+x22 <=1 
C119: x3+x23-y3_23 <=1 
C120: x3+x24 <=1 
C121: x3+x25 <=1 
C122: x3+x26-y3_26 <=1 
C123: x3+x28-y3_28 <=1 
C124: x3+x29 <=1 
C125: x3+x30 <=1 
C126: x3+x31 <=1 
C127: x3+x35-y3_35 <=1 
C128: x3+x36 <=1 
C129: x3+x37-y3_37 <=1 
C130: x3+x38-y3_38 <=1 
C131: x3+x40 <=1 
C132: x3+x41 <=1 
C133: x3+x42 <=1 
C134: x3+x43-y3_43 <=1 
C135: x3+x44 <=1 
C136: x3+x49-y3_49 <=1 
C137: x3+x50 <=1 
C138: x3+x52-y3_52 <=1 
C139: x3+x54-y3_54 <=1 
C140: x3+x57 <=1 
C141: x3+x58 <=1 
C142: x3+x59-y3_59 <=1 
C143: x3+x60 <=1 
C144: x4+x5 <=1 
C145: x4+x7 <=1 
C146: x4+x8 <=1 
C147: x4+x9 <=1 
C148: x4+x10-y4_10 <=1 
C149: x4+x11 <=1 
C150: x4+x18 <=1 
C151: x4+x19 <=1 
C152: x4+x20-y4_20 <=1 
C153: x4+x23 <=1 
C154: x4+x24 <=1 
C155: x4+x25 <=1 
C156: x4+x28 <=1 
C157: x4+x29 <=1 
C158: x4+x30-y4_30 <=1 
C159: x4+x32 <=1 
C160: x4+x34-y4_34 <=1 
C161: x4+x35 <=1 
C162: x4+x40 <=1 
C163: x4+x41-y4_41 <=1 
C164: x4+x43-y4_43 <=1 
C165: x4+x44 <=1 
C166: x4+x47 <=1 
C167: x4+x49 <=1 
C168: x4+x50-y4_50 <=1 
C169: x4+x52 <=1 
C170: x4+x55 <=1 
C171: x4+x56-y4_56 <=1 
C172: x4+x58-y4_58 <=1 
C173: x4+x59-y4_59 <=1 
C174: x4+x60 <=1 
C175: x5+x6-y5_6 <=1 
C176: x5+x8 <=1 
C177: x5+x10-y5_10 <=1 
C178: x5+x11-y5_11 <=1 
C179: x5+x13 <=1 
C180: x5+x15-y5_15 <=1 
C181: x5+x16-y5_16 <=1 
C182: x5+x17-y5_17 <=1 
C183: x5+x18 <=1 
C184: x5+x21-y5_21 <=1 
C185: x5+x22 <=1 
C186: x5+x24-y5_24 <=1 
C187: x5+x25 <=1 
C188: x5+x26-y5_26 <=1 
C189: x5+x27 <=1 
C190: x5+x29 <=1 
C191: x5+x33-y5_33 <=1 
C192: x5+x35-y5_35 <=1 
C193: x5+x36 <=1 
C194: x5+x38-y5_38 <=1 
C195: x5+x39-y5_39 <=1 
C196: x5+x42-y5_42 <=1 
C197: x5+x43 <=1 
C198: x5+x45 <=1 
C199: x5+x46 <=1 
C200: x5+x47-y5_47 <=1 
C201: x5+x48 <=1 
C202: x5+x49 <=1 
C203: x5+x50-y5_50 <=1 
C204: x5+x54 <=1 
C205: x5+x55 <=1 
C206: x5+x57-y5_57 <=1 
C207: x5+x58-y5_58 <=1 
C208: x5+x59 <=1 
C209: x5+x60-y5_60 <=1 
C210: x6+x7-y6_7 <=1 
C211: x6+x10 <=1 
C212: x6+x11 <=1 
C213: x6+x12 <=1 
C214: x6+x16 <=1 
C215: x6+x17-y6_17 <=1 
C216: x6+x19 <=1 
C217: x6+x20 <=1 
C218: x6+x22-y6_22 <=1 
C219: x6+x23 <=1 
C220: x6+x24-y6_24 <=1 
C221: x6+x25 <=1 
C222: x6+x28 <=1 
C223: x6+x29 <=1 
C224: x6+x30 <=1 
C225: x6+x31 <=1 
C226: x6+x33 <=1 
C227: x6+x34-y6_34 <=1 
C228: x6+x35-y6_35 <=1 
C229: x6+x36 <=1 
C230: x6+x40 <=1 
C231: x6+x41 <=1 
C232: x6+x44 <=1 
C233: x6+x45 <=1 
C234: x6+x46 <=1 
C235: x6+x49-y6_49 <=1 
C236: x6+x51-y6_51 <=1 
C237: x6+x52 <=1 
C238: x6+x53-y6_53 <=1 
C239: x6+x55-y6_55 <=1 
C240: x6+x58-y6_58 <=1 
C241: x6+x60 <=1 
C242: x7+x8-y7_8 <=1 
C243: x7+x10-y7_10 <=1 
C244: x7+x11 <=1 
C245: x7+x13 <=1 
C246: x7+x14-y7_14 <=1 
C247: x7+x15-y7_15 <=1 
C248: x7+x17 <=1 
C249: x7+x18-y7_18 <=1 
C250: x7+x21 <=1 
C251: x7+x22-y7_22 <=1 
C252: x7+x24 <=1 
C253: x7+x30 <=1 
C254: x7+x32 <=1 
C255: x7+x36-y7_36 <=1 
C256: x7+x38-y7_38 <=1 
C257: x7+x40-y7_40 <=1 
C258: x7+x43-y7_43 <=1 
C259: x7+x44-y7_44 <=1 
C260: x7+x45 <=1 
C261: x7+x46 <=1 
C262: x7+x47-y7_47 <=1 
C263: x7+x48 <=1 
C264: x7+x49-y7_49 <=1 
C265: x7+x50 <=1 
C266: x7+x51-y7_51 <=1 
C267: x7+x52 <=1 
C268: x7+x53-y7_53 <=1 
C269: x7+x54-y7_54 <=1 
C270: x7+x55-y7_55 <=1 
C271: x7+x56-y7_56 <=1 
C272: x7+x57-y7_57 <=1 
C273: x7+x58 <=1 
C274: x7+x59-y7_59 <=1 
C275: x8+x9 <=1 
C276: x8+x10 <=1 
C277: x8+x12 <=1 
C278: x8+x13 <=1 
C279: x8+x16 <=1 
C280: x8+x17 <=1 
C281: x8+x18 <=1 
C282: x8+x19-y8_19 <=1 
C283: x8+x20 <=1 
C284: x8+x22 <=1 
C285: x8+x28-y8_28 <=1 
C286: x8+x29 <=1 
C287: x8+x32-y8_32 <=1 
C288: x8+x33 <=1 
C289: x8+x34-y8_34 <=1 
C290: x8+x36-y8_36 <=1 
C291: x8+x38-y8_38 <=1 
C292: x8+x43 <=1 
C293: x8+x45 <=1 
C294: x8+x46 <=1 
C295: x8+x50-y8_50 <=1 
C296: x8+x51-y8_51 <=1 
C297: x8+x52-y8_52 <=1 
C298: x8+x54 <=1 
C299: x8+x56 <=1 
C300: x8+x57-y8_57 <=1 
C301: x8+x58-y8_58 <=1 
C302: x8+x60 <=1 
C303: x9+x11-y9_11 <=1 
C304: x9+x12 <=1 
C305: x9+x17 <=1 
C306: x9+x19-y9_19 <=1 
C307: x9+x26 <=1 
C308: x9+x27 <=1 
C309: x9+x28 <=1 
C310: x9+x29-y9_29 <=1 
C311: x9+x30 <=1 
C312: x9+x32-y9_32 <=1 
C313: x9+x36-y9_36 <=1 
C314: x9+x37-y9_37 <=1 
C315: x9+x38-y9_38 <=1 
C316: x9+x40-y9_40 <=1 
C317: x9+x42-y9_42 <=1 
C318: x9+x43 <=1 
C319: x9+x44-y9_44 <=1 
C320: x9+x45-y9_45 <=1 
C321: x9+x47 <=1 
C322: x9+x48-y9_48 <=1 
C323: x9+x49-y9_49 <=1 
C324: x9+x51 <=1 
C325: x9+x56 <=1 
C326: x9+x59-y9_59 <=1 
C327: x10+x11-y10_11 <=1 
C328: x10+x12-y10_12 <=1 
C329: x10+x13-y10_13 <=1 
C330: x10+x14 <=1 
C331: x10+x15-y10_15 <=1 
C332: x10+x16 <=1 
C333: x10+x17 <=1 
C334: x10+x18-y10_18 <=1 
C335: x10+x20 <=1 
C336: x10+x23 <=1 
C337: x10+x24-y10_24 <=1 
C338: x10+x25 <=1 
C339: x10+x26 <=1 
C340: x10+x27 <=1 
C341: x10+x28 <=1 
C342: x10+x29-y10_29 <=1 
C343: x10+x30 <=1 
C344: x10+x31 <=1 
C345: x10+x32 <=1 
C346: x10+x35-y10_35 <=1 
C347: x10+x36 <=1 
C348: x10+x38 <=1 
C349: x10+x39 <=1 
C350: x10+x40 <=1 
C351: x10+x42-y10_42 <=1 
C352: x10+x44-y10_44 <=1 
C353: x10+x45-y10_45 <=1 
C354: x10+x46 <=1 
C355: x10+x48-y10_48 <=1 
C356: x10+x49-y10_49 <=1 
C357: x10+x52-y10_52 <=1 
C358: x10+x55-y10_55 <=1 
C359: x10+x57 <=1 
C360: x10+x59-y10_59 <=1 
C361: x11+x13-y11_13 <=1 
C362: x11+x15 <=1 
C363: x11+x16 <=1 
C364: x11+x18 <=1 
C365: x11+x19-y11_19 <=1 
C366: x11+x21 <=1 
C367: x11+x23 <=1 
C368: x11+x24-y11_24 <=1 
C369: x11+x25 <=1 
C370: x11+x26-y11_26 <=1 
C371: x11+x27-y11_27 <=1 
C372: x11+x29-y11_29 <=1 
C373: x11+x31-y11_31 <=1 
C374: x11+x34 <=1 
C375: x11+x35 <=1 
C376: x11+x39 <=1 
C377: x11+x43 <=1 
C378: x11+x44 <=1 
C379: x11+x45 <=1 
C380: x11+x46-y11_46 <=1 
C381: x11+x47-y11_47 <=1 
C382: x11+x49 <=1 
C383: x11+x52-y11_52 <=1 
C384: x11+x53 <=1 
C385: x11+x60-y11_60 <=1 
C386: x12+x14 <=1 
C387: x12+x15-y12_15 <=1 
C388: x12+x16-y12_16 <=1 
C389: x12+x17 <=1 
C390: x12+x19-y12_19 <=1 
C391: x12+x20 <=1 
C392: x12+x21 <=1 
C393: x12+x23 <=1 
C394: x12+x25-y12_25 <=1 
C395: x12+x26 <=1 
C396: x12+x27-y12_27 <=1 
C397: x12+x29 <=1 
C398: x12+x30 <=1 
C399: x12+x33 <=1 
C400: x12+x35 <=1 
C401: x12+x36-y12_36 <=1 
C402: x12+x37 <=1 
C403: x12+x38-y12_38 <=1 
C404: x12+x39 <=1 
C405: x12+x41-y12_41 <=1 
C406: x12+x42-y12_42 <=1 
C407: x12+x43 <=1 
C408: x12+x45-y12_45 <=1 
C409: x12+x50 <=1 
C410: x12+x52 <=1 
C411: x12+x54 <=1 
C412: x12+x55-y12_55 <=1 
C413: x12+x56 <=1 
C414: x12+x57 <=1 
C415: x12+x58 <=1 
C416: x12+x59-y12_59 <=1 
C417: x12+x60-y12_60 <=1 
C418: x13+x14 <=1 
C419: x13+x16 <=1 
C420: x13+x17 <=1 
C421: x13+x19-y13_19 <=1 
C422: x13+x20-y13_20 <=1 
C423: x13+x22-y13_22 <=1 
C424: x13+x23-y13_23 <=1 
C425: x13+x25 <=1 
C426: x13+x28 <=1 
C427: x13+x29 <=1 
C428: x13+x30-y13_30 <=1 
C429: x13+x32 <=1 
C430: x13+x33 <=1 
C431: x13+x34 <=1 
C432: x13+x35 <=1 
C433: x13+x36-y13_36 <=1 
C434: x13+x39 <=1 
C435: x13+x40-y13_40 <=1 
C436: x13+x42 <=1 
C437: x13+x43 <=1 
C438: x13+x44-y13_44 <=1 
C439: x13+x45-y13_45 <=1 
C440: x13+x46 <=1 
C441: x13+x47 <=1 
C442: x13+x49 <=1 
C443: x13+x50-y13_50 <=1 
C444: x13+x51 <=1 
C445: x13+x52 <=1 
C446: x13+x53-y13_53 <=1 
C447: x13+x56-y13_56 <=1 
C448: x13+x57-y13_57 <=1 
C449: x13+x59-y13_59 <=1 
C450: x13+x60 <=1 
C451: x14+x17-y14_17 <=1 
C452: x14+x20 <=1 
C453: x14+x22 <=1 
C454: x14+x24 <=1 
C455: x14+x26 <=1 
C456: x14+x30 <=1 
C457: x14+x31 <=1 
C458: x14+x32-y14_32 <=1 
C459: x14+x38 <=1 
C460: x14+x40-y14_40 <=1 
C461: x14+x42-y14_42 <=1 
C462: x14+x44 <=1 
C463: x14+x45 <=1 
C464: x14+x46 <=1 
C465: x14+x47 <=1 
C466: x14+x48-y14_48 <=1 
C467: x14+x50 <=1 
C468: x14+x51 <=1 
C469: x14+x54-y14_54 <=1 
C470: x14+x55 <=1 
C471: x14+x56 <=1 
C472: x14+x58-y14_58 <=1 
C473: x14+x59-y14_59 <=1 
C474: x14+x60 <=1 
C475: x15+x16 <=1 
C476: x15+x17-y15_17 <=1 
C477: x15+x19-y15_19 <=1 
C478: x15+x20-y15_20 <=1 
C479: x15+x21-y15_21 <=1 
C480: x15+x22-y15_22 <=1 
C481: x15+x24 <=1 
C482: x15+x25 <=1 
C483: x15+x26 <=1 
C484: x15+x33 <=1 
C485: x15+x34 <=1 
C486: x15+x35 <=1 
C487: x15+x37 <=1 
C488: x15+x38 <=1 
C489: x15+x39-y15_39 <=1 
C490: x15+x42 <=1 
C491: x15+x44 <=1 
C492: x15+x47-y15_47 <=1 
C493: x15+x48-y15_48 <=1 
C494: x15+x50-y15_50 <=1 
C495: x15+x53 <=1 
C496: x15+x56-y15_56 <=1 
C497: x15+x58 <=1 
C498: x15+x59 <=1 
C499: x15+x60-y15_60 <=1 
C500: x16+x17 <=1 
C501: x16+x21-y16_21 <=1 
C502: x16+x24 <=1 
C503: x16+x25-y16_25 <=1 
C504: x16+x28-y16_28 <=1 
C505: x16+x29 <=1 
C506: x16+x31-y16_31 <=1 
C507: x16+x32-y16_32 <=1 
C508: x16+x35-y16_35 <=1 
C509: x16+x36-y16_36 <=1 
C510: x16+x37-y16_37 <=1 
C511: x16+x40 <=1 
C512: x16+x41-y16_41 <=1 
C513: x16+x46 <=1 
C514: x16+x47 <=1 
C515: x16+x48-y16_48 <=1 
C516: x16+x49 <=1 
C517: x16+x50 <=1 
C518: x16+x51-y16_51 <=1 
C519: x16+x53 <=1 
C520: x16+x54-y16_54 <=1 
C521: x16+x55 <=1 
C522: x16+x58 <=1 
C523: x16+x59 <=1 
C524: x16+x60 <=1 
C525: x17+x18-y17_18 <=1 
C526: x17+x19-y17_19 <=1 
C527: x17+x21-y17_21 <=1 
C528: x17+x23 <=1 
C529: x17+x25 <=1 
C530: x17+x26 <=1 
C531: x17+x27 <=1 
C532: x17+x28-y17_28 <=1 
C533: x17+x30 <=1 
C534: x17+x31-y17_31 <=1 
C535: x17+x32-y17_32 <=1 
C536: x17+x34-y17_34 <=1 
C537: x17+x35-y17_35 <=1 
C538: x17+x37-y17_37 <=1 
C539: x17+x38-y17_38 <=1 
C540: x17+x40 <=1 
C541: x17+x41 <=1 
C542: x17+x42-y17_42 <=1 
C543: x17+x45-y17_45 <=1 
C544: x17+x46-y17_46 <=1 
C545: x17+x48 <=1 
C546: x17+x49 <=1 
C547: x17+x50-y17_50 <=1 
C548: x17+x52-y17_52 <=1 
C549: x17+x53 <=1 
C550: x17+x54-y17_54 <=1 
C551: x17+x55-y17_55 <=1 
C552: x17+x57 <=1 
C553: x17+x58-y17_58 <=1 
C554: x18+x19 <=1 
C555: x18+x20 <=1 
C556: x18+x21-y18_21 <=1 
C557: x18+x23-y18_23 <=1 
C558: x18+x24 <=1 
C559: x18+x26 <=1 
C560: x18+x27-y18_27 <=1 
C561: x18+x28-y18_28 <=1 
C562: x18+x30-y18_30 <=1 
C563: x18+x31 <=1 
C564: x18+x34 <=1 
C565: x18+x35-y18_35 <=1 
C566: x18+x36-y18_36 <=1 
C567: x18+x39-y18_39 <=1 
C568: x18+x41 <=1 
C569: x18+x43-y18_43 <=1 
C570: x18+x44-y18_44 <=1 
C571: x18+x45-y18_45 <=1 
C572: x18+x46 <=1 
C573: x18+x47 <=1 
C574: x18+x49 <=1 
C575: x18+x51 <=1 
C576: x18+x53-y18_53 <=1 
C577: x18+x54-y18_54 <=1 
C578: x18+x55-y18_55 <=1 
C579: x18+x57-y18_57 <=1 
C580: x18+x58 <=1 
C581: x18+x59 <=1 
C582: x19+x23 <=1 
C583: x19+x24 <=1 
C584: x19+x26 <=1 
C585: x19+x27-y19_27 <=1 
C586: x19+x29 <=1 
C587: x19+x30 <=1 
C588: x19+x31 <=1 
C589: x19+x32 <=1 
C590: x19+x34 <=1 
C591: x19+x35-y19_35 <=1 
C592: x19+x36-y19_36 <=1 
C593: x19+x38-y19_38 <=1 
C594: x19+x39-y19_39 <=1 
C595: x19+x41 <=1 
C596: x19+x42-y19_42 <=1 
C597: x19+x43-y19_43 <=1 
C598: x19+x44-y19_44 <=1 
C599: x19+x46-y19_46 <=1 
C600: x19+x47 <=1 
C601: x19+x52-y19_52 <=1 
C602: x19+x53 <=1 
C603: x19+x58 <=1 
C604: x19+x59 <=1 
C605: x19+x60 <=1 
C606: x20+x21 <=1 
C607: x20+x22 <=1 
C608: x20+x24 <=1 
C609: x20+x26-y20_26 <=1 
C610: x20+x27-y20_27 <=1 
C611: x20+x28 <=1 
C612: x20+x30-y20_30 <=1 
C613: x20+x31 <=1 
C614: x20+x33 <=1 
C615: x20+x35-y20_35 <=1 
C616: x20+x37-y20_37 <=1 
C617: x20+x38-y20_38 <=1 
C618: x20+x39-y20_39 <=1 
C619: x20+x40-y20_40 <=1 
C620: x20+x41 <=1 
C621: x20+x42-y20_42 <=1 
C622: x20+x43-y20_43 <=1 
C623: x20+x44-y20_44 <=1 
C624: x20+x45-y20_45 <=1 
C625: x20+x46-y20_46 <=1 
C626: x20+x47-y20_47 <=1 
C627: x20+x48 <=1 
C628: x20+x50-y20_50 <=1 
C629: x20+x51 <=1 
C630: x20+x52 <=1 
C631: x20+x54-y20_54 <=1 
C632: x20+x55-y20_55 <=1 
C633: x20+x57-y20_57 <=1 
C634: x20+x59 <=1 
C635: x20+x60 <=1 
C636: x21+x22-y21_22 <=1 
C637: x21+x24-y21_24 <=1 
C638: x21+x25-y21_25 <=1 
C639: x21+x26 <=1 
C640: x21+x27-y21_27 <=1 
C641: x21+x28-y21_28 <=1 
C642: x21+x29 <=1 
C643: x21+x31 <=1 
C644: x21+x32-y21_32 <=1 
C645: x21+x33-y21_33 <=1 
C646: x21+x35-y21_35 <=1 
C647: x21+x36-y21_36 <=1 
C648: x21+x37-y21_37 <=1 
C649: x21+x40 <=1 
C650: x21+x41 <=1 
C651: x21+x42 <=1 
C652: x21+x43-y21_43 <=1 
C653: x21+x47 <=1 
C654: x21+x48 <=1 
C655: x21+x49 <=1 
C656: x21+x50-y21_50 <=1 
C657: x21+x52 <=1 
C658: x21+x55-y21_55 <=1 
C659: x21+x58 <=1 
C660: x21+x60 <=1 
C661: x22+x23-y22_23 <=1 
C662: x22+x24 <=1 
C663: x22+x25-y22_25 <=1 
C664: x22+x26-y22_26 <=1 
C665: x22+x27 <=1 
C666: x22+x30-y22_30 <=1 
C667: x22+x33 <=1 
C668: x22+x35 <=1 
C669: x22+x37-y22_37 <=1 
C670: x22+x38-y22_38 <=1 
C671: x22+x39 <=1 
C672: x22+x44 <=1 
C673: x22+x49-y22_49 <=1 
C674: x22+x50-y22_50 <=1 
C675: x22+x51 <=1 
C676: x22+x52-y22_52 <=1 
C677: x22+x53-y22_53 <=1 
C678: x22+x54 <=1 
C679: x22+x55 <=1 
C680: x22+x57-y22_57 <=1 
C681: x22+x58 <=1 
C682: x22+x59-y22_59 <=1 
C683: x22+x60-y22_60 <=1 
C684: x23+x25-y23_25 <=1 
C685: x23+x26 <=1 
C686: x23+x30 <=1 
C687: x23+x31-y23_31 <=1 
C688: x23+x33-y23_33 <=1 
C689: x23+x34-y23_34 <=1 
C690: x23+x35 <=1 
C691: x23+x36 <=1 
C692: x23+x37 <=1 
C693: x23+x39 <=1 
C694: x23+x40-y23_40 <=1 
C695: x23+x41-y23_41 <=1 
C696: x23+x42 <=1 
C697: x23+x44-y23_44 <=1 
C698: x23+x45-y23_45 <=1 
C699: x23+x49-y23_49 <=1 
C700: x23+x50-y23_50 <=1 
C701: x23+x51-y23_51 <=1 
C702: x23+x52-y23_52 <=1 
C703: x23+x53-y23_53 <=1 
C704: x23+x55-y23_55 <=1 
C705: x23+x57-y23_57 <=1 
C706: x23+x60 <=1 
C707: x24+x25-y24_25 <=1 
C708: x24+x26-y24_26 <=1 
C709: x24+x27 <=1 
C710: x24+x28-y24_28 <=1 
C711: x24+x30 <=1 
C712: x24+x31-y24_31 <=1 
C713: x24+x34-y24_34 <=1 
C714: x24+x35-y24_35 <=1 
C715: x24+x36-y24_36 <=1 
C716: x24+x37 <=1 
C717: x24+x39-y24_39 <=1 
C718: x24+x40-y24_40 <=1 
C719: x24+x41-y24_41 <=1 
C720: x24+x42-y24_42 <=1 
C721: x24+x43 <=1 
C722: x24+x45 <=1 
C723: x24+x46-y24_46 <=1 
C724: x24+x48-y24_48 <=1 
C725: x24+x50-y24_50 <=1 
C726: x24+x51-y24_51 <=1 
C727: x24+x54 <=1 
C728: x24+x55-y24_55 <=1 
C729: x24+x56 <=1 
C730: x24+x57-y24_57 <=1 
C731: x24+x58 <=1 
C732: x24+x60 <=1 
C733: x25+x26 <=1 
C734: x25+x28 <=1 
C735: x25+x29 <=1 
C736: x25+x30-y25_30 <=1 
C737: x25+x31 <=1 
C738: x25+x32 <=1 
C739: x25+x34 <=1 
C740: x25+x37-y25_37 <=1 
C741: x25+x41-y25_41 <=1 
C742: x25+x43 <=1 
C743: x25+x45-y25_45 <=1 
C744: x25+x46 <=1 
C745: x25+x47-y25_47 <=1 
C746: x25+x49-y25_49 <=1 
C747: x25+x50 <=1 
C748: x25+x52-y25_52 <=1 
C749: x25+x53 <=1 
C750: x25+x54-y25_54 <=1 
C751: x25+x55 <=1 
C752: x25+x56-y25_56 <=1 
C753: x25+x57-y25_57 <=1 
C754: x25+x58 <=1 
C755: x25+x59 <=1 
C756: x25+x60-y25_60 <=1 
C757: x26+x27 <=1 
C758: x26+x29-y26_29 <=1 
C759: x26+x32 <=1 
C760: x26+x33 <=1 
C761: x26+x34-y26_34 <=1 
C762: x26+x35-y26_35 <=1 
C763: x26+x37-y26_37 <=1 
C764: x26+x39-y26_39 <=1 
C765: x26+x40-y26_40 <=1 
C766: x26+x41-y26_41 <=1 
C767: x26+x42-y26_42 <=1 
C768: x26+x44-y26_44 <=1 
C769: x26+x48-y26_48 <=1 
C770: x26+x51 <=1 
C771: x26+x52-y26_52 <=1 
C772: x26+x53 <=1 
C773: x26+x55-y26_55 <=1 
C774: x26+x56 <=1 
C775: x26+x59-y26_59 <=1 
C776: x27+x28-y27_28 <=1 
C777: x27+x30-y27_30 <=1 
C778: x27+x31-y27_31 <=1 
C779: x27+x32-y27_32 <=1 
C780: x27+x34 <=1 
C781: x27+x36 <=1 
C782: x27+x38-y27_38 <=1 
C783: x27+x45 <=1 
C784: x27+x46 <=1 
C785: x27+x47 <=1 
C786: x27+x49 <=1 
C787: x27+x50-y27_50 <=1 
C788: x27+x51 <=1 
C789: x27+x54-y27_54 <=1 
C790: x27+x55 <=1 
C791: x27+x56-y27_56 <=1 
C792: x27+x57 <=1 
C793: x27+x60 <=1 
C794: x28+x29 <=1 
C795: x28+x30 <=1 
C796: x28+x31-y28_31 <=1 
C797: x28+x32-y28_32 <=1 
C798: x28+x33 <=1 
C799: x28+x34 <=1 
C800: x28+x36-y28_36 <=1 
C801: x28+x39-y28_39 <=1 
C802: x28+x42-y28_42 <=1 
C803: x28+x43 <=1 
C804: x28+x45 <=1 
C805: x28+x46-y28_46 <=1 
C806: x28+x47 <=1 
C807: x28+x48 <=1 
C808: x28+x51 <=1 
C809: x28+x52-y28_52 <=1 
C810: x28+x53-y28_53 <=1 
C811: x28+x55 <=1 
C812: x28+x57 <=1 
C813: x28+x58-y28_58 <=1 
C814: x29+x30 <=1 
C815: x29+x31-y29_31 <=1 
C816: x29+x33 <=1 
C817: x29+x35 <=1 
C818: x29+x36-y29_36 <=1 
C819: x29+x37-y29_37 <=1 
C820: x29+x38 <=1 
C821: x29+x40 <=1 
C822: x29+x41 <=1 
C823: x29+x42 <=1 
C824: x29+x43-y29_43 <=1 
C825: x29+x46-y29_46 <=1 
C826: x29+x48-y29_48 <=1 
C827: x29+x50 <=1 
C828: x29+x52 <=1 
C829: x29+x55 <=1 
C830: x29+x57 <=1 
C831: x29+x58 <=1 
C832: x29+x59-y29_59 <=1 
C833: x29+x60 <=1 
C834: x30+x31-y30_31 <=1 
C835: x30+x33-y30_33 <=1 
C836: x30+x34 <=1 
C837: x30+x36 <=1 
C838: x30+x38 <=1 
C839: x30+x39 <=1 
C840: x30+x40 <=1 
C841: x30+x41-y30_41 <=1 
C842: x30+x42-y30_42 <=1 
C843: x30+x43 <=1 
C844: x30+x44-y30_44 <=1 
C845: x30+x48 <=1 
C846: x30+x49-y30_49 <=1 
C847: x30+x51 <=1 
C848: x30+x52 <=1 
C849: x30+x53 <=1 
C850: x30+x56 <=1 
C851: x30+x59-y30_59 <=1 
C852: x31+x32 <=1 
C853: x31+x33-y31_33 <=1 
C854: x31+x34 <=1 
C855: x31+x36-y31_36 <=1 
C856: x31+x37 <=1 
C857: x31+x38-y31_38 <=1 
C858: x31+x40 <=1 
C859: x31+x41-y31_41 <=1 
C860: x31+x43 <=1 
C861: x31+x44 <=1 
C862: x31+x49-y31_49 <=1 
C863: x31+x51-y31_51 <=1 
C864: x31+x52 <=1 
C865: x31+x53-y31_53 <=1 
C866: x31+x54 <=1 
C867: x31+x55-y31_55 <=1 
C868: x31+x56 <=1 
C869: x31+x57-y31_57 <=1 
C870: x31+x58 <=1 
C871: x31+x60 <=1 
C872: x32+x33-y32_33 <=1 
C873: x32+x34-y32_34 <=1 
C874: x32+x36-y32_36 <=1 
C875: x32+x37 <=1 
C876: x32+x38 <=1 
C877: x32+x39 <=1 
C878: x32+x40-y32_40 <=1 
C879: x32+x41-y32_41 <=1 
C880: x32+x42 <=1 
C881: x32+x43-y32_43 <=1 
C882: x32+x44 <=1 
C883: x32+x47-y32_47 <=1 
C884: x32+x48 <=1 
C885: x32+x49 <=1 
C886: x32+x50 <=1 
C887: x32+x51 <=1 
C888: x32+x53-y32_53 <=1 
C889: x32+x55-y32_55 <=1 
C890: x32+x56 <=1 
C891: x32+x58-y32_58 <=1 
C892: x32+x59 <=1 
C893: x32+x60 <=1 
C894: x33+x35-y33_35 <=1 
C895: x33+x36-y33_36 <=1 
C896: x33+x38 <=1 
C897: x33+x39-y33_39 <=1 
C898: x33+x40 <=1 
C899: x33+x41 <=1 
C900: x33+x42-y33_42 <=1 
C901: x33+x44 <=1 
C902: x33+x47-y33_47 <=1 
C903: x33+x48-y33_48 <=1 
C904: x33+x52 <=1 
C905: x33+x53 <=1 
C906: x33+x55-y33_55 <=1 
C907: x33+x57-y33_57 <=1 
C908: x33+x58-y33_58 <=1 
C909: x33+x59 <=1 
C910: x34+x36-y34_36 <=1 
C911: x34+x37-y34_37 <=1 
C912: x34+x38 <=1 
C913: x34+x39-y34_39 <=1 
C914: x34+x40-y34_40 <=1 
C915: x34+x41 <=1 
C916: x34+x42-y34_42 <=1 
C917: x34+x44 <=1 
C918: x34+x45 <=1 
C919: x34+x46 <=1 
C920: x34+x47-y34_47 <=1 
C921: x34+x48-y34_48 <=1 
C922: x34+x49-y34_49 <=1 
C923: x34+x50-y34_50 <=1 
C924: x34+x51 <=1 
C925: x34+x53-y34_53 <=1 
C926: x34+x54-y34_54 <=1 
C927: x34+x55-y34_55 <=1 
C928: x34+x57 <=1 
C929: x35+x37-y35_37 <=1 
C930: x35+x38-y35_38 <=1 
C931: x35+x39 <=1 
C932: x35+x42 <=1 
C933: x35+x43 <=1 
C934: x35+x44-y35_44 <=1 
C935: x35+x45 <=1 
C936: x35+x47-y35_47 <=1 
C937: x35+x48-y35_48 <=1 
C938: x35+x52-y35_52 <=1 
C939: x35+x53-y35_53 <=1 
C940: x35+x55 <=1 
C941: x35+x56 <=1 
C942: x35+x57-y35_57 <=1 
C943: x35+x60 <=1 
C944: x36+x38-y36_38 <=1 
C945: x36+x41-y36_41 <=1 
C946: x36+x44 <=1 
C947: x36+x48-y36_48 <=1 
C948: x36+x49 <=1 
C949: x36+x52-y36_52 <=1 
C950: x36+x54-y36_54 <=1 
C951: x36+x58 <=1 
C952: x36+x60 <=1 
C953: x37+x39 <=1 
C954: x37+x40 <=1 
C955: x37+x41-y37_41 <=1 
C956: x37+x42 <=1 
C957: x37+x45-y37_45 <=1 
C958: x37+x46 <=1 
C959: x37+x48-y37_48 <=1 
C960: x37+x49-y37_49 <=1 
C961: x37+x51 <=1 
C962: x37+x52 <=1 
C963: x37+x54-y37_54 <=1 
C964: x37+x55 <=1 
C965: x37+x57 <=1 
C966: x37+x59-y37_59 <=1 
C967: x37+x60-y37_60 <=1 
C968: x38+x39 <=1 
C969: x38+x40 <=1 
C970: x38+x43 <=1 
C971: x38+x48-y38_48 <=1 
C972: x38+x49 <=1 
C973: x38+x50-y38_50 <=1 
C974: x38+x52 <=1 
C975: x38+x53 <=1 
C976: x38+x54 <=1 
C977: x38+x56 <=1 
C978: x38+x58-y38_58 <=1 
C979: x38+x59-y38_59 <=1 
C980: x38+x60-y38_60 <=1 
C981: x39+x42-y39_42 <=1 
C982: x39+x43-y39_43 <=1 
C983: x39+x44-y39_44 <=1 
C984: x39+x50-y39_50 <=1 
C985: x39+x53 <=1 
C986: x39+x54-y39_54 <=1 
C987: x39+x55-y39_55 <=1 
C988: x39+x56 <=1 
C989: x39+x57-y39_57 <=1 
C990: x39+x58 <=1 
C991: x39+x59-y39_59 <=1 
C992: x39+x60-y39_60 <=1 
C993: x40+x45-y40_45 <=1 
C994: x40+x48 <=1 
C995: x40+x49-y40_49 <=1 
C996: x40+x51 <=1 
C997: x40+x52 <=1 
C998: x40+x56-y40_56 <=1 
C999: x40+x59 <=1 
C1000: x41+x44-y41_44 <=1 
C1001: x41+x47 <=1 
C1002: x41+x48-y41_48 <=1 
C1003: x41+x54 <=1 
C1004: x41+x55 <=1 
C1005: x41+x57 <=1 
C1006: x41+x58-y41_58 <=1 
C1007: x41+x60-y41_60 <=1 
C1008: x42+x43-y42_43 <=1 
C1009: x42+x45 <=1 
C1010: x42+x48-y42_48 <=1 
C1011: x42+x49 <=1 
C1012: x42+x51-y42_51 <=1 
C1013: x42+x52-y42_52 <=1 
C1014: x42+x53 <=1 
C1015: x42+x54-y42_54 <=1 
C1016: x42+x55-y42_55 <=1 
C1017: x42+x56-y42_56 <=1 
C1018: x42+x57-y42_57 <=1 
C1019: x42+x58 <=1 
C1020: x42+x59 <=1 
C1021: x43+x44 <=1 
C1022: x43+x45-y43_45 <=1 
C1023: x43+x46-y43_46 <=1 
C1024: x43+x47 <=1 
C1025: x43+x48 <=1 
C1026: x43+x50-y43_50 <=1 
C1027: x43+x53 <=1 
C1028: x43+x55 <=1 
C1029: x43+x56 <=1 
C1030: x43+x58 <=1 
C1031: x43+x59-y43_59 <=1 
C1032: x43+x60 <=1 
C1033: x44+x45 <=1 
C1034: x44+x46-y44_46 <=1 
C1035: x44+x47-y44_47 <=1 
C1036: x44+x48 <=1 
C1037: x44+x49 <=1 
C1038: x44+x50 <=1 
C1039: x44+x51 <=1 
C1040: x44+x53-y44_53 <=1 
C1041: x44+x58 <=1 
C1042: x44+x59-y44_59 <=1 
C1043: x44+x60-y44_60 <=1 
C1044: x45+x46 <=1 
C1045: x45+x48-y45_48 <=1 
C1046: x45+x49 <=1 
C1047: x45+x50 <=1 
C1048: x45+x51 <=1 
C1049: x45+x52 <=1 
C1050: x45+x56-y45_56 <=1 
C1051: x45+x57 <=1 
C1052: x45+x58 <=1 
C1053: x45+x59 <=1 
C1054: x45+x60 <=1 
C1055: x46+x47-y46_47 <=1 
C1056: x46+x48 <=1 
C1057: x46+x49-y46_49 <=1 
C1058: x46+x51-y46_51 <=1 
C1059: x46+x52-y46_52 <=1 
C1060: x46+x53-y46_53 <=1 
C1061: x46+x57-y46_57 <=1 
C1062: x46+x58 <=1 
C1063: x46+x60 <=1 
C1064: x47+x48 <=1 
C1065: x47+x49-y47_49 <=1 
C1066: x47+x51 <=1 
C1067: x47+x54-y47_54 <=1 
C1068: x47+x55-y47_55 <=1 
C1069: x47+x56 <=1 
C1070: x47+x57-y47_57 <=1 
C1071: x47+x58-y47_58 <=1 
C1072: x47+x60-y47_60 <=1 
C1073: x48+x49-y48_49 <=1 
C1074: x48+x54-y48_54 <=1 
C1075: x48+x55 <=1 
C1076: x48+x56-y48_56 <=1 
C1077: x48+x59-y48_59 <=1 
C1078: x49+x51 <=1 
C1079: x49+x57-y49_57 <=1 
C1080: x49+x58 <=1 
C1081: x49+x59-y49_59 <=1 
C1082: x50+x51-y50_51 <=1 
C1083: x50+x53 <=1 
C1084: x50+x55 <=1 
C1085: x50+x57-y50_57 <=1 
C1086: x50+x58 <=1 
C1087: x51+x55-y51_55 <=1 
C1088: x51+x56-y51_56 <=1 
C1089: x51+x57 <=1 
C1090: x51+x59-y51_59 <=1 
C1091: x51+x60-y51_60 <=1 
C1092: x52+x54 <=1 
C1093: x52+x56-y52_56 <=1 
C1094: x52+x58-y52_58 <=1 
C1095: x52+x59-y52_59 <=1 
C1096: x53+x54 <=1 
C1097: x53+x55 <=1 
C1098: x53+x56 <=1 
C1099: x53+x57-y53_57 <=1 
C1100: x54+x57 <=1 
C1101: x54+x58-y54_58 <=1 
C1102: x54+x59 <=1 
C1103: x55+x56-y55_56 <=1 
C1104: x55+x57-y55_57 <=1 
C1105: x55+x59 <=1 
C1106: x55+x60 <=1 
C1107: x56+x57 <=1 
C1108: x56+x58-y56_58 <=1 
C1109: x56+x59-y56_59 <=1 
C1110: x56+x60 <=1 
C1111: x58+x59-y58_59 <=1 
C1112: x59+x60-y59_60 <=1 

binary
x0
x1
x2
x3
x4
x5
x6
x7
x8
x9
x10
x11
x12
x13
x14
x15
x16
x17
x18
x19
x20
x21
x22
x23
x24
x25
x26
x27
x28
x29
x30
x31
x32
x33
x34
x35
x36
x37
x38
x39
x40
x41
x42
x43
x44
x45
x46
x47
x48
x49
x50
x51
x52
x53
x54
x55
x56
x57
x58
x59
x60
