problem_generation/data/GISP/train/er_n=61_m=1112_p=0.60_SET2_setparam=100.00_alpha=0.50_488.sol
objective value:                                 1176
x1                                                  1 	(obj:100)
x9                                                  1 	(obj:100)
x14                                                 1 	(obj:100)
x16                                                 1 	(obj:100)
x18                                                 1 	(obj:100)
x25                                                 1 	(obj:100)
x36                                                 1 	(obj:100)
x39                                                 1 	(obj:100)
x42                                                 1 	(obj:100)
x48                                                 1 	(obj:100)
x52                                                 1 	(obj:100)
x57                                                 1 	(obj:100)
y25_52                                              1 	(obj:-1)
y14_42                                              1 	(obj:-1)
y36_48                                              1 	(obj:-1)
y36_52                                              1 	(obj:-1)
y9_48                                               1 	(obj:-1)
y39_57                                              1 	(obj:-1)
y1_52                                               1 	(obj:-1)
y16_36                                              1 	(obj:-1)
y42_48                                              1 	(obj:-1)
y42_57                                              1 	(obj:-1)
y39_42                                              1 	(obj:-1)
y42_52                                              1 	(obj:-1)
y1_14                                               1 	(obj:-1)
y18_39                                              1 	(obj:-1)
y18_57                                              1 	(obj:-1)
y1_9                                                1 	(obj:-1)
y1_18                                               1 	(obj:-1)
y9_42                                               1 	(obj:-1)
y16_48                                              1 	(obj:-1)
y9_36                                               1 	(obj:-1)
y16_25                                              1 	(obj:-1)
y14_48                                              1 	(obj:-1)
y18_36                                              1 	(obj:-1)
y25_57                                              1 	(obj:-1)
